n_agents = 11;

% transfered from the photo2.dzn instance from the MZN benchmark
friends = [
{1,3,4}, % 01
{2,5,11,9},       % 02
{1,5,7},   % 03
{4,5,10},  % 04
7..8,          % 05
{10,5,2},     % 06
{3,7,8},       % 07
{1,7},     % 08
{2,6,4},  % 09
{4,9,5},   % 10
10..11];        % 11

enemies = [
{2,5}, % 01
{7,6},       % 02
{3,8,9,10},   % 03
{1,2,7},  % 04
5..6,          % 05
{11,4,1},     % 06
{2,8,9},       % 07
{10,8},     % 08
{1,5,3},  % 09
{7,8,2},   % 10
4..6];        % 11